
Gurobi 11.0.1 (win64) logging started Thu Mar 14 08:01:58 2024

Set parameter LogFile to value "C:\Projetos\Job_Rotation_Algorithms\Outputs\GurobiLogs\gurobi_log-output-32_ros-c31-CostaMirallesModel-NoExtraConstraint-2.log"
Gurobi Optimizer version 11.0.1 build v11.0.1rc0 (win64 - Windows 10.0 (19045.2))

CPU model: 11th Gen Intel(R) Core(TM) i7-1165G7 @ 2.80GHz, instruction set [SSE2|AVX|AVX2|AVX512]
Thread count: 4 physical cores, 8 logical processors, using up to 1 threads


Gurobi 11.0.1 (win64) logging started Fri Mar 15 00:39:25 2024

Set parameter LogFile to value "C:\Projetos\Job_Rotation_Algorithms\Outputs\GurobiLogs\gurobi_log-output-32_ros-c31-CostaMirallesModel-NoExtraConstraint-2.log"
Gurobi Optimizer version 11.0.1 build v11.0.1rc0 (win64 - Windows 10.0 (19045.2))

CPU model: 11th Gen Intel(R) Core(TM) i7-1165G7 @ 2.80GHz, instruction set [SSE2|AVX|AVX2|AVX512]
Thread count: 4 physical cores, 8 logical processors, using up to 1 threads


Gurobi 11.0.1 (win64) logging started Sat Mar 16 12:25:48 2024

Set parameter LogFile to value "C:\Projetos\Job_Rotation_Algorithms\Outputs\GurobiLogs\gurobi_log-output-32_ros-c31-CostaMirallesModel-NoExtraConstraint-2.log"
Gurobi Optimizer version 11.0.1 build v11.0.1rc0 (win64 - Windows 10.0 (19045.2))

CPU model: 11th Gen Intel(R) Core(TM) i7-1165G7 @ 2.80GHz, instruction set [SSE2|AVX|AVX2|AVX512]
Thread count: 4 physical cores, 8 logical processors, using up to 1 threads


Gurobi 11.0.1 (win64) logging started Sat Mar 16 22:29:12 2024

Set parameter LogFile to value "C:\Projetos\Job_Rotation_Algorithms\Outputs\GurobiLogs\gurobi_log-output-32_ros-c31-CostaMirallesModel-NoExtraConstraint-2.log"
Gurobi Optimizer version 11.0.1 build v11.0.1rc0 (win64 - Windows 10.0 (19045.2))

CPU model: 11th Gen Intel(R) Core(TM) i7-1165G7 @ 2.80GHz, instruction set [SSE2|AVX|AVX2|AVX512]
Thread count: 4 physical cores, 8 logical processors, using up to 1 threads

WLS license 901039 - registered to Bitka Analytics
Optimize a model with 421 rows, 844 columns and 6616 nonzeros
Model fingerprint: 0xd2f1a703
Variable types: 2 continuous, 842 integer (842 binary)
Coefficient statistics:
  Matrix range     [1e+00, 3e+01]
  Objective range  [1e+00, 1e+00]
  Bounds range     [1e+00, 6e+01]
  RHS range        [1e+00, 6e+01]
Presolve removed 41 rows and 121 columns
Presolve time: 0.03s
Presolved: 380 rows, 723 columns, 5278 nonzeros
Variable types: 0 continuous, 723 integer (722 binary)

Root relaxation: objective 5.000000e+01, 463 iterations, 0.02 seconds (0.01 work units)

    Nodes    |    Current Node    |     Objective Bounds      |     Work
 Expl Unexpl |  Obj  Depth IntInf | Incumbent    BestBd   Gap | It/Node Time

     0     0   50.00000    0   13          -   50.00000      -     -    0s
     0     0   50.00000    0  172          -   50.00000      -     -    0s
     0     0   50.00000    0  139          -   50.00000      -     -    0s
     0     0   50.00000    0   23          -   50.00000      -     -    0s
     0     0   50.00000    0   73          -   50.00000      -     -    0s
     0     0   50.00000    0   27          -   50.00000      -     -    0s
     0     0   50.00000    0    8          -   50.00000      -     -    0s
     0     2   50.00000    0    8          -   50.00000      -     -    0s
*  143    74              22      46.0000000   50.00000  8.70%  59.6    0s
*  445   120              17      47.0000000   50.00000  6.38%  78.6    1s
H  466   115                      48.0000000   50.00000  4.17%  80.2    1s
H  933    90                      49.0000000   50.00000  2.04%  94.2    3s
  1058    82   50.00000   14   65   49.00000   50.00000  2.04%  26.1    5s

Cutting planes:
  Gomory: 2
  Cover: 19
  Clique: 6
  Flow cover: 3
  GUB cover: 8
  Zero half: 1
  RLT: 4

Explored 1084 nodes (126865 simplex iterations) in 5.32 seconds (5.21 work units)
Thread count was 1 (of 8 available processors)

Solution count 4: 49 48 47 46 

Optimal solution found (tolerance 1.00e-03)
Best objective 4.900000000000e+01, best bound 4.900000000000e+01, gap 0.0000%
